NAME : amz1754.93645_87645.tour
COMMENT : Cost = 93645_87645
COMMENT : Found by LKH-AMZ [Keld Helsgaun] Sun May 11 13:26:33 2025
COMMENT : TW viol.: 0 #: 0
TYPE : TOUR
DIMENSION : 114
TOUR_SECTION
72
61
15
59
22
74
91
8
76
56
93
90
69
106
42
96
94
111
103
48
14
6
45
33
102
49
60
67
53
38
79
19
88
108
85
83
82
87
109
55
44
104
20
58
98
105
23
27
65
110
89
66
52
101
78
28
114
64
84
36
24
1
92
13
62
18
77
4
3
26
81
37
100
9
31
73
11
80
57
35
51
32
7
34
86
50
21
40
43
47
107
10
46
68
95
29
2
17
113
39
112
71
75
5
97
41
25
99
30
54
12
63
70
16
-1
EOF
